c ind 112 154 156 158 160 162 164 166 168 17 0
c ind 170 172 174 176 178 180 182 184 186 188 0
c ind 19 190 192 194 196 198 200 202 204 206 0
c ind 208 21 210 212 214 216 23 249 25 251 0
c ind 253 255 257 259 261 263 265 267 269 27 0
c ind 271 273 275 277 279 281 283 285 287 289 0
c ind 29 291 293 295 297 299 3 301 303 305 0
c ind 307 309 31 311 4 42 6 7 79 81 0
p cnf 645 1883
-1 -2 5 0
-1 2 8 0
-10 11 0
-10 28 0
-100 101 0
-100 24 0
-101 102 0
-101 14 0
-102 -23 7 0
-102 -7 23 0
-103 -104 109 0
-103 104 113 0
-104 105 0
-104 30 0
-105 106 0
-105 28 0
-106 107 0
-106 26 0
-107 108 0
-107 24 0
-108 102 0
-108 38 0
-109 -110 5 0
-109 110 41 0
-11 12 0
-11 26 0
-110 111 78 0
-111 -112 7 0
-111 -7 112 0
-113 -114 119 0
-113 114 312 0
-114 115 0
-114 30 0
-115 116 0
-115 28 0
-116 117 0
-116 26 0
-117 118 0
-117 13 0
-118 -25 7 0
-118 -7 25 0
-119 -110 5 0
-119 110 120 0
-12 13 0
-12 24 0
-120 -121 5 0
-120 121 41 0
-121 122 0
-121 217 0
-122 123 0
-122 215 0
-123 124 0
-123 213 0
-124 125 0
-124 211 0
-125 126 0
-125 209 0
-126 127 0
-126 207 0
-127 128 0
-127 205 0
-128 129 0
-128 203 0
-129 130 0
-129 201 0
-13 14 0
-13 22 0
-130 131 0
-130 199 0
-131 132 0
-131 197 0
-132 133 0
-132 195 0
-133 134 0
-133 193 0
-134 135 0
-134 191 0
-135 136 0
-135 189 0
-136 137 0
-136 187 0
-137 138 0
-137 185 0
-138 139 0
-138 183 0
-139 140 0
-139 181 0
-14 15 0
-14 20 0
-140 141 0
-140 179 0
-141 142 0
-141 177 0
-142 143 0
-142 175 0
-143 144 0
-143 173 0
-144 145 0
-144 171 0
-145 146 0
-145 169 0
-146 147 0
-146 167 0
-147 148 0
-147 165 0
-148 149 0
-148 163 0
-149 150 0
-149 161 0
-15 16 0
-15 18 0
-150 151 0
-150 159 0
-151 152 0
-151 157 0
-152 153 0
-152 155 0
-153 -154 4 0
-153 -4 154 0
-155 -156 4 0
-155 -4 156 0
-157 -158 4 0
-157 -4 158 0
-159 -160 4 0
-159 -4 160 0
-16 -17 4 0
-16 -4 17 0
-161 -162 4 0
-161 -4 162 0
-163 -164 4 0
-163 -4 164 0
-165 -166 4 0
-165 -4 166 0
-167 -168 4 0
-167 -4 168 0
-169 -170 4 0
-169 -4 170 0
-171 -172 4 0
-171 -4 172 0
-173 -174 4 0
-173 -4 174 0
-175 -176 4 0
-175 -4 176 0
-177 -178 4 0
-177 -4 178 0
-179 -180 4 0
-179 -4 180 0
-18 -19 4 0
-18 -4 19 0
-181 -182 4 0
-181 -4 182 0
-183 -184 4 0
-183 -4 184 0
-185 -186 4 0
-185 -4 186 0
-187 -188 4 0
-187 -4 188 0
-189 -190 4 0
-189 -4 190 0
-191 -192 4 0
-191 -4 192 0
-193 -194 4 0
-193 -4 194 0
-195 -196 4 0
-195 -4 196 0
-197 -198 4 0
-197 -4 198 0
-199 -200 4 0
-199 -4 200 0
-2 -3 4 0
-2 -4 3 0
-20 -21 4 0
-20 -4 21 0
-201 -202 4 0
-201 -4 202 0
-203 -204 4 0
-203 -4 204 0
-205 -206 4 0
-205 -4 206 0
-207 -208 4 0
-207 -4 208 0
-209 -210 4 0
-209 -4 210 0
-211 -212 4 0
-211 -4 212 0
-213 -214 4 0
-213 -4 214 0
-215 -216 4 0
-215 -4 216 0
-217 218 0
-217 310 0
-218 219 0
-218 308 0
-219 220 0
-219 306 0
-22 -23 4 0
-22 -4 23 0
-220 221 0
-220 304 0
-221 222 0
-221 302 0
-222 223 0
-222 300 0
-223 224 0
-223 298 0
-224 225 0
-224 296 0
-225 226 0
-225 294 0
-226 227 0
-226 292 0
-227 228 0
-227 290 0
-228 229 0
-228 288 0
-229 230 0
-229 286 0
-230 231 0
-230 284 0
-231 232 0
-231 282 0
-232 233 0
-232 280 0
-233 234 0
-233 278 0
-234 235 0
-234 276 0
-235 236 0
-235 274 0
-236 237 0
-236 272 0
-237 238 0
-237 270 0
-238 239 0
-238 268 0
-239 240 0
-239 266 0
-24 -25 4 0
-24 -4 25 0
-240 241 0
-240 264 0
-241 242 0
-241 262 0
-242 243 0
-242 260 0
-243 244 0
-243 258 0
-244 245 0
-244 256 0
-245 246 0
-245 254 0
-246 247 0
-246 252 0
-247 248 0
-247 250 0
-248 -249 4 0
-248 -4 249 0
-250 -251 4 0
-250 -4 251 0
-252 -253 4 0
-252 -4 253 0
-254 -255 4 0
-254 -4 255 0
-256 -257 4 0
-256 -4 257 0
-258 -259 4 0
-258 -4 259 0
-26 -27 4 0
-26 -4 27 0
-260 -261 4 0
-260 -4 261 0
-262 -263 4 0
-262 -4 263 0
-264 -265 4 0
-264 -4 265 0
-266 -267 4 0
-266 -4 267 0
-268 -269 4 0
-268 -4 269 0
-270 -271 4 0
-270 -4 271 0
-272 -273 4 0
-272 -4 273 0
-274 -275 4 0
-274 -4 275 0
-276 -277 4 0
-276 -4 277 0
-278 -279 4 0
-278 -4 279 0
-28 -29 4 0
-28 -4 29 0
-280 -281 4 0
-280 -4 281 0
-282 -283 4 0
-282 -4 283 0
-284 -285 4 0
-284 -4 285 0
-286 -287 4 0
-286 -4 287 0
-288 -289 4 0
-288 -4 289 0
-290 -291 4 0
-290 -4 291 0
-292 -293 4 0
-292 -4 293 0
-294 -295 4 0
-294 -4 295 0
-296 -297 4 0
-296 -4 297 0
-298 -299 4 0
-298 -4 299 0
-30 -31 4 0
-30 -4 31 0
-300 -301 4 0
-300 -4 301 0
-302 -303 4 0
-302 -4 303 0
-304 -305 4 0
-304 -4 305 0
-306 -307 4 0
-306 -4 307 0
-308 -309 4 0
-308 -4 309 0
-310 -311 4 0
-310 -4 311 0
-312 -313 317 0
-312 313 351 0
-313 30 0
-313 314 0
-314 28 0
-314 315 0
-315 26 0
-315 316 0
-316 118 0
-316 37 0
-317 -110 5 0
-317 110 318 0
-318 -319 5 0
-318 319 41 0
-319 215 0
-319 320 0
-32 -33 41 0
-32 33 43 0
-320 213 0
-320 321 0
-321 211 0
-321 322 0
-322 209 0
-322 323 0
-323 207 0
-323 324 0
-324 205 0
-324 325 0
-325 203 0
-325 326 0
-326 201 0
-326 327 0
-327 199 0
-327 328 0
-328 197 0
-328 329 0
-329 195 0
-329 330 0
-33 30 0
-33 34 0
-330 193 0
-330 331 0
-331 191 0
-331 332 0
-332 189 0
-332 333 0
-333 187 0
-333 334 0
-334 185 0
-334 335 0
-335 183 0
-335 336 0
-336 181 0
-336 337 0
-337 179 0
-337 338 0
-338 177 0
-338 339 0
-339 175 0
-339 340 0
-34 28 0
-34 35 0
-340 173 0
-340 341 0
-341 171 0
-341 342 0
-342 169 0
-342 343 0
-343 167 0
-343 344 0
-344 165 0
-344 345 0
-345 163 0
-345 346 0
-346 161 0
-346 347 0
-347 159 0
-347 348 0
-348 157 0
-348 349 0
-349 155 0
-349 350 0
-35 26 0
-35 36 0
-350 -154 7 0
-350 -7 154 0
-351 -352 356 0
-351 352 423 0
-352 30 0
-352 353 0
-353 28 0
-353 354 0
-354 26 0
-354 355 0
-355 118 0
-355 48 0
-356 -110 5 0
-356 110 357 0
-357 -358 5 0
-357 358 41 0
-358 359 0
-358 391 0
-359 215 0
-359 360 0
-36 24 0
-36 37 0
-360 213 0
-360 361 0
-361 211 0
-361 362 0
-362 209 0
-362 363 0
-363 207 0
-363 364 0
-364 205 0
-364 365 0
-365 203 0
-365 366 0
-366 201 0
-366 367 0
-367 199 0
-367 368 0
-368 197 0
-368 369 0
-369 195 0
-369 370 0
-37 22 0
-37 38 0
-370 193 0
-370 371 0
-371 191 0
-371 372 0
-372 189 0
-372 373 0
-373 187 0
-373 374 0
-374 185 0
-374 375 0
-375 183 0
-375 376 0
-376 181 0
-376 377 0
-377 179 0
-377 378 0
-378 177 0
-378 379 0
-379 175 0
-379 380 0
-38 20 0
-38 39 0
-380 173 0
-380 381 0
-381 171 0
-381 382 0
-382 169 0
-382 383 0
-383 167 0
-383 384 0
-384 165 0
-384 385 0
-385 163 0
-385 386 0
-386 161 0
-386 387 0
-387 159 0
-387 388 0
-388 157 0
-388 389 0
-389 153 0
-389 390 0
-39 18 0
-39 40 0
-390 -156 7 0
-390 -7 156 0
-391 310 0
-391 392 0
-392 308 0
-392 393 0
-393 306 0
-393 394 0
-394 304 0
-394 395 0
-395 302 0
-395 396 0
-396 300 0
-396 397 0
-397 298 0
-397 398 0
-398 296 0
-398 399 0
-399 294 0
-399 400 0
-4 0
-40 -17 7 0
-40 -7 17 0
-400 292 0
-400 401 0
-401 290 0
-401 402 0
-402 288 0
-402 403 0
-403 286 0
-403 404 0
-404 284 0
-404 405 0
-405 282 0
-405 406 0
-406 280 0
-406 407 0
-407 278 0
-407 408 0
-408 276 0
-408 409 0
-409 274 0
-409 410 0
-41 -42 6 0
-41 -6 42 0
-410 272 0
-410 411 0
-411 270 0
-411 412 0
-412 268 0
-412 413 0
-413 266 0
-413 414 0
-414 264 0
-414 415 0
-415 262 0
-415 416 0
-416 260 0
-416 417 0
-417 258 0
-417 418 0
-418 256 0
-418 419 0
-419 254 0
-419 420 0
-420 252 0
-420 421 0
-421 250 0
-421 422 0
-422 -249 7 0
-422 -7 249 0
-423 -424 428 0
-423 424 460 0
-424 30 0
-424 425 0
-425 28 0
-425 426 0
-426 26 0
-426 427 0
-427 118 0
-427 57 0
-428 -110 5 0
-428 110 429 0
-429 -430 5 0
-429 430 41 0
-43 -44 41 0
-43 44 52 0
-430 122 0
-430 431 0
-431 310 0
-431 432 0
-432 308 0
-432 433 0
-433 306 0
-433 434 0
-434 304 0
-434 435 0
-435 302 0
-435 436 0
-436 300 0
-436 437 0
-437 298 0
-437 438 0
-438 296 0
-438 439 0
-439 294 0
-439 440 0
-44 30 0
-44 45 0
-440 292 0
-440 441 0
-441 290 0
-441 442 0
-442 288 0
-442 443 0
-443 286 0
-443 444 0
-444 284 0
-444 445 0
-445 282 0
-445 446 0
-446 280 0
-446 447 0
-447 278 0
-447 448 0
-448 276 0
-448 449 0
-449 274 0
-449 450 0
-45 28 0
-45 46 0
-450 272 0
-450 451 0
-451 270 0
-451 452 0
-452 268 0
-452 453 0
-453 266 0
-453 454 0
-454 264 0
-454 455 0
-455 262 0
-455 456 0
-456 260 0
-456 457 0
-457 258 0
-457 458 0
-458 245 0
-458 459 0
-459 -257 7 0
-459 -7 257 0
-46 26 0
-46 47 0
-460 -461 465 0
-460 461 498 0
-461 30 0
-461 462 0
-462 28 0
-462 463 0
-463 26 0
-463 464 0
-464 118 0
-464 65 0
-465 -110 5 0
-465 110 466 0
-466 -467 5 0
-466 467 41 0
-467 215 0
-467 468 0
-468 213 0
-468 469 0
-469 211 0
-469 470 0
-47 24 0
-47 48 0
-470 209 0
-470 471 0
-471 207 0
-471 472 0
-472 205 0
-472 473 0
-473 203 0
-473 474 0
-474 201 0
-474 475 0
-475 199 0
-475 476 0
-476 197 0
-476 477 0
-477 195 0
-477 478 0
-478 193 0
-478 479 0
-479 191 0
-479 480 0
-48 22 0
-48 49 0
-480 189 0
-480 481 0
-481 187 0
-481 482 0
-482 185 0
-482 483 0
-483 183 0
-483 484 0
-484 181 0
-484 485 0
-485 179 0
-485 486 0
-486 177 0
-486 487 0
-487 175 0
-487 488 0
-488 173 0
-488 489 0
-489 171 0
-489 490 0
-49 20 0
-49 50 0
-490 169 0
-490 491 0
-491 167 0
-491 492 0
-492 165 0
-492 493 0
-493 163 0
-493 494 0
-494 161 0
-494 495 0
-495 159 0
-495 496 0
-496 157 0
-496 497 0
-497 350 0
-497 390 0
-498 -499 503 0
-498 499 536 0
-499 30 0
-499 500 0
-5 -6 7 0
-5 -7 6 0
-50 16 0
-50 51 0
-500 28 0
-500 501 0
-501 26 0
-501 502 0
-502 118 0
-502 74 0
-503 -110 5 0
-503 110 504 0
-504 -505 5 0
-504 505 41 0
-505 215 0
-505 506 0
-506 213 0
-506 507 0
-507 211 0
-507 508 0
-508 209 0
-508 509 0
-509 207 0
-509 510 0
-51 -19 7 0
-51 -7 19 0
-510 205 0
-510 511 0
-511 203 0
-511 512 0
-512 201 0
-512 513 0
-513 199 0
-513 514 0
-514 197 0
-514 515 0
-515 195 0
-515 516 0
-516 193 0
-516 517 0
-517 191 0
-517 518 0
-518 189 0
-518 519 0
-519 187 0
-519 520 0
-52 -53 41 0
-52 53 60 0
-520 185 0
-520 521 0
-521 183 0
-521 522 0
-522 181 0
-522 523 0
-523 179 0
-523 524 0
-524 177 0
-524 525 0
-525 175 0
-525 526 0
-526 173 0
-526 527 0
-527 171 0
-527 528 0
-528 169 0
-528 529 0
-529 167 0
-529 530 0
-53 30 0
-53 54 0
-530 165 0
-530 531 0
-531 163 0
-531 532 0
-532 161 0
-532 533 0
-533 159 0
-533 534 0
-534 389 0
-534 535 0
-535 -158 7 0
-535 -7 158 0
-536 -537 541 0
-536 537 573 0
-537 30 0
-537 538 0
-538 28 0
-538 539 0
-539 26 0
-539 540 0
-54 28 0
-54 55 0
-540 118 0
-540 87 0
-541 -110 5 0
-541 110 542 0
-542 -543 5 0
-542 543 41 0
-543 215 0
-543 544 0
-544 213 0
-544 545 0
-545 211 0
-545 546 0
-546 209 0
-546 547 0
-547 207 0
-547 548 0
-548 205 0
-548 549 0
-549 203 0
-549 550 0
-55 26 0
-55 56 0
-550 201 0
-550 551 0
-551 199 0
-551 552 0
-552 197 0
-552 553 0
-553 195 0
-553 554 0
-554 193 0
-554 555 0
-555 191 0
-555 556 0
-556 189 0
-556 557 0
-557 187 0
-557 558 0
-558 185 0
-558 559 0
-559 183 0
-559 560 0
-56 24 0
-56 57 0
-560 181 0
-560 561 0
-561 179 0
-561 562 0
-562 177 0
-562 563 0
-563 175 0
-563 564 0
-564 173 0
-564 565 0
-565 171 0
-565 566 0
-566 169 0
-566 567 0
-567 167 0
-567 568 0
-568 165 0
-568 569 0
-569 163 0
-569 570 0
-57 22 0
-57 58 0
-570 161 0
-570 571 0
-571 151 0
-571 572 0
-572 -160 7 0
-572 -7 160 0
-573 -574 578 0
-573 574 580 0
-574 30 0
-574 575 0
-575 28 0
-575 576 0
-576 26 0
-576 577 0
-577 118 0
-577 94 0
-578 -110 5 0
-578 110 579 0
-579 -122 5 0
-579 122 41 0
-58 20 0
-58 59 0
-580 -581 585 0
-580 581 616 0
-581 30 0
-581 582 0
-582 28 0
-582 583 0
-583 26 0
-583 584 0
-584 101 0
-584 118 0
-585 -110 5 0
-585 110 586 0
-586 -587 5 0
-586 587 41 0
-587 215 0
-587 588 0
-588 213 0
-588 589 0
-589 211 0
-589 590 0
-59 40 0
-59 51 0
-590 209 0
-590 591 0
-591 207 0
-591 592 0
-592 205 0
-592 593 0
-593 203 0
-593 594 0
-594 201 0
-594 595 0
-595 199 0
-595 596 0
-596 197 0
-596 597 0
-597 195 0
-597 598 0
-598 193 0
-598 599 0
-599 191 0
-599 600 0
-60 -61 68 0
-60 61 69 0
-600 189 0
-600 601 0
-601 187 0
-601 602 0
-602 185 0
-602 603 0
-603 183 0
-603 604 0
-604 181 0
-604 605 0
-605 179 0
-605 606 0
-606 177 0
-606 607 0
-607 175 0
-607 608 0
-608 173 0
-608 609 0
-609 171 0
-609 610 0
-61 30 0
-61 62 0
-610 169 0
-610 611 0
-611 167 0
-611 612 0
-612 165 0
-612 613 0
-613 163 0
-613 614 0
-614 161 0
-614 615 0
-615 348 0
-615 572 0
-616 -617 578 0
-616 617 621 0
-617 30 0
-617 618 0
-618 28 0
-618 619 0
-619 26 0
-619 620 0
-62 28 0
-62 63 0
-620 108 0
-620 118 0
-621 -622 578 0
-621 622 626 0
-622 30 0
-622 623 0
-623 28 0
-623 624 0
-624 12 0
-624 625 0
-625 -27 7 0
-625 -7 27 0
-626 -627 578 0
-626 627 630 0
-627 30 0
-627 628 0
-628 28 0
-628 629 0
-629 36 0
-629 625 0
-63 26 0
-63 64 0
-630 -631 578 0
-630 631 634 0
-631 30 0
-631 632 0
-632 28 0
-632 633 0
-633 47 0
-633 625 0
-634 -635 578 0
-634 635 638 0
-635 30 0
-635 636 0
-636 28 0
-636 637 0
-637 56 0
-637 625 0
-638 -639 578 0
-638 639 642 0
-639 30 0
-639 640 0
-64 24 0
-64 65 0
-640 28 0
-640 641 0
-641 625 0
-641 64 0
-642 -643 578 0
-642 643 5 0
-643 30 0
-643 644 0
-644 28 0
-644 645 0
-645 625 0
-645 73 0
-65 22 0
-65 66 0
-66 15 0
-66 67 0
-67 -21 7 0
-67 -7 21 0
-68 -4 6 0
-68 -6 4 0
-69 -70 76 0
-69 70 82 0
-70 30 0
-70 71 0
-71 28 0
-71 72 0
-72 26 0
-72 73 0
-73 24 0
-73 74 0
-74 22 0
-74 75 0
-75 39 0
-75 67 0
-76 -77 5 0
-76 77 41 0
-77 78 0
-77 80 0
-78 -7 79 0
-78 -79 7 0
-8 -9 5 0
-8 9 32 0
-80 -7 81 0
-80 -81 7 0
-82 -83 41 0
-82 83 89 0
-83 30 0
-83 84 0
-84 28 0
-84 85 0
-85 26 0
-85 86 0
-86 24 0
-86 87 0
-87 22 0
-87 88 0
-88 50 0
-88 67 0
-89 -90 41 0
-89 90 96 0
-9 10 0
-9 30 0
-90 30 0
-90 91 0
-91 28 0
-91 92 0
-92 26 0
-92 93 0
-93 24 0
-93 94 0
-94 22 0
-94 95 0
-95 59 0
-95 67 0
-96 -97 68 0
-96 97 103 0
-97 30 0
-97 98 0
-98 28 0
-98 99 0
-99 100 0
-99 26 0
1 -2 -5 0
1 -5 -8 0
1 0
1 2 -8 0
10 -11 -28 0
100 -101 -24 0
101 -14 -102 0
102 -23 -7 0
102 23 7 0
103 -104 -109 0
103 -109 -113 0
103 104 -113 0
104 -105 -30 0
105 -106 -28 0
106 -107 -26 0
107 -108 -24 0
108 -38 -102 0
109 -110 -5 0
109 -5 -41 0
109 110 -41 0
11 -12 -26 0
110 -111 0
110 -78 0
111 -112 -7 0
111 112 7 0
113 -114 -119 0
113 -119 -312 0
113 114 -312 0
114 -115 -30 0
115 -116 -28 0
116 -117 -26 0
117 -13 -118 0
118 -25 -7 0
118 25 7 0
119 -110 -5 0
119 -5 -120 0
119 110 -120 0
12 -13 -24 0
120 -121 -5 0
120 -5 -41 0
120 121 -41 0
121 -122 -217 0
122 -123 -215 0
123 -124 -213 0
124 -125 -211 0
125 -126 -209 0
126 -127 -207 0
127 -128 -205 0
128 -129 -203 0
129 -130 -201 0
13 -14 -22 0
130 -131 -199 0
131 -132 -197 0
132 -133 -195 0
133 -134 -193 0
134 -135 -191 0
135 -136 -189 0
136 -137 -187 0
137 -138 -185 0
138 -139 -183 0
139 -140 -181 0
14 -15 -20 0
140 -141 -179 0
141 -142 -177 0
142 -143 -175 0
143 -144 -173 0
144 -145 -171 0
145 -146 -169 0
146 -147 -167 0
147 -148 -165 0
148 -149 -163 0
149 -150 -161 0
15 -16 -18 0
150 -151 -159 0
151 -152 -157 0
152 -153 -155 0
153 -154 -4 0
153 154 4 0
155 -156 -4 0
155 156 4 0
157 -158 -4 0
157 158 4 0
159 -160 -4 0
159 160 4 0
16 -17 -4 0
16 17 4 0
161 -162 -4 0
161 162 4 0
163 -164 -4 0
163 164 4 0
165 -166 -4 0
165 166 4 0
167 -168 -4 0
167 168 4 0
169 -170 -4 0
169 170 4 0
171 -172 -4 0
171 172 4 0
173 -174 -4 0
173 174 4 0
175 -176 -4 0
175 176 4 0
177 -178 -4 0
177 178 4 0
179 -180 -4 0
179 180 4 0
18 -19 -4 0
18 19 4 0
181 -182 -4 0
181 182 4 0
183 -184 -4 0
183 184 4 0
185 -186 -4 0
185 186 4 0
187 -188 -4 0
187 188 4 0
189 -190 -4 0
189 190 4 0
191 -192 -4 0
191 192 4 0
193 -194 -4 0
193 194 4 0
195 -196 -4 0
195 196 4 0
197 -198 -4 0
197 198 4 0
199 -200 -4 0
199 200 4 0
2 -3 -4 0
2 3 4 0
20 -21 -4 0
20 21 4 0
201 -202 -4 0
201 202 4 0
203 -204 -4 0
203 204 4 0
205 -206 -4 0
205 206 4 0
207 -208 -4 0
207 208 4 0
209 -210 -4 0
209 210 4 0
211 -212 -4 0
211 212 4 0
213 -214 -4 0
213 214 4 0
215 -216 -4 0
215 216 4 0
217 -218 -310 0
218 -219 -308 0
219 -220 -306 0
22 -23 -4 0
22 23 4 0
220 -221 -304 0
221 -222 -302 0
222 -223 -300 0
223 -224 -298 0
224 -225 -296 0
225 -226 -294 0
226 -227 -292 0
227 -228 -290 0
228 -229 -288 0
229 -230 -286 0
230 -231 -284 0
231 -232 -282 0
232 -233 -280 0
233 -234 -278 0
234 -235 -276 0
235 -236 -274 0
236 -237 -272 0
237 -238 -270 0
238 -239 -268 0
239 -240 -266 0
24 -25 -4 0
24 25 4 0
240 -241 -264 0
241 -242 -262 0
242 -243 -260 0
243 -244 -258 0
244 -245 -256 0
245 -246 -254 0
246 -247 -252 0
247 -248 -250 0
248 -249 -4 0
248 249 4 0
250 -251 -4 0
250 251 4 0
252 -253 -4 0
252 253 4 0
254 -255 -4 0
254 255 4 0
256 -257 -4 0
256 257 4 0
258 -259 -4 0
258 259 4 0
26 -27 -4 0
26 27 4 0
260 -261 -4 0
260 261 4 0
262 -263 -4 0
262 263 4 0
264 -265 -4 0
264 265 4 0
266 -267 -4 0
266 267 4 0
268 -269 -4 0
268 269 4 0
270 -271 -4 0
270 271 4 0
272 -273 -4 0
272 273 4 0
274 -275 -4 0
274 275 4 0
276 -277 -4 0
276 277 4 0
278 -279 -4 0
278 279 4 0
28 -29 -4 0
28 29 4 0
280 -281 -4 0
280 281 4 0
282 -283 -4 0
282 283 4 0
284 -285 -4 0
284 285 4 0
286 -287 -4 0
286 287 4 0
288 -289 -4 0
288 289 4 0
290 -291 -4 0
290 291 4 0
292 -293 -4 0
292 293 4 0
294 -295 -4 0
294 295 4 0
296 -297 -4 0
296 297 4 0
298 -299 -4 0
298 299 4 0
30 -31 -4 0
30 31 4 0
300 -301 -4 0
300 301 4 0
302 -303 -4 0
302 303 4 0
304 -305 -4 0
304 305 4 0
306 -307 -4 0
306 307 4 0
308 -309 -4 0
308 309 4 0
310 -311 -4 0
310 311 4 0
312 -313 -317 0
312 -317 -351 0
312 313 -351 0
313 -314 -30 0
314 -315 -28 0
315 -316 -26 0
316 -37 -118 0
317 -110 -5 0
317 -5 -318 0
317 110 -318 0
318 -319 -5 0
318 -5 -41 0
318 319 -41 0
319 -320 -215 0
32 -33 -41 0
32 -41 -43 0
32 33 -43 0
320 -321 -213 0
321 -322 -211 0
322 -323 -209 0
323 -324 -207 0
324 -325 -205 0
325 -326 -203 0
326 -327 -201 0
327 -328 -199 0
328 -329 -197 0
329 -330 -195 0
33 -34 -30 0
330 -331 -193 0
331 -332 -191 0
332 -333 -189 0
333 -334 -187 0
334 -335 -185 0
335 -336 -183 0
336 -337 -181 0
337 -338 -179 0
338 -339 -177 0
339 -340 -175 0
34 -35 -28 0
340 -341 -173 0
341 -342 -171 0
342 -343 -169 0
343 -344 -167 0
344 -345 -165 0
345 -346 -163 0
346 -347 -161 0
347 -348 -159 0
348 -349 -157 0
349 -350 -155 0
35 -36 -26 0
350 -154 -7 0
350 154 7 0
351 -352 -356 0
351 -356 -423 0
351 352 -423 0
352 -353 -30 0
353 -354 -28 0
354 -355 -26 0
355 -48 -118 0
356 -110 -5 0
356 -5 -357 0
356 110 -357 0
357 -358 -5 0
357 -5 -41 0
357 358 -41 0
358 -359 -391 0
359 -360 -215 0
36 -37 -24 0
360 -361 -213 0
361 -362 -211 0
362 -363 -209 0
363 -364 -207 0
364 -365 -205 0
365 -366 -203 0
366 -367 -201 0
367 -368 -199 0
368 -369 -197 0
369 -370 -195 0
37 -38 -22 0
370 -371 -193 0
371 -372 -191 0
372 -373 -189 0
373 -374 -187 0
374 -375 -185 0
375 -376 -183 0
376 -377 -181 0
377 -378 -179 0
378 -379 -177 0
379 -380 -175 0
38 -39 -20 0
380 -381 -173 0
381 -382 -171 0
382 -383 -169 0
383 -384 -167 0
384 -385 -165 0
385 -386 -163 0
386 -387 -161 0
387 -388 -159 0
388 -389 -157 0
389 -153 -390 0
39 -40 -18 0
390 -156 -7 0
390 156 7 0
391 -392 -310 0
392 -393 -308 0
393 -394 -306 0
394 -395 -304 0
395 -396 -302 0
396 -397 -300 0
397 -398 -298 0
398 -399 -296 0
399 -400 -294 0
40 -17 -7 0
40 17 7 0
400 -401 -292 0
401 -402 -290 0
402 -403 -288 0
403 -404 -286 0
404 -405 -284 0
405 -406 -282 0
406 -407 -280 0
407 -408 -278 0
408 -409 -276 0
409 -410 -274 0
41 -6 -42 0
41 6 42 0
410 -411 -272 0
411 -412 -270 0
412 -413 -268 0
413 -414 -266 0
414 -415 -264 0
415 -416 -262 0
416 -417 -260 0
417 -418 -258 0
418 -419 -256 0
419 -420 -254 0
420 -421 -252 0
421 -422 -250 0
422 -249 -7 0
422 249 7 0
423 -424 -428 0
423 -428 -460 0
423 424 -460 0
424 -425 -30 0
425 -426 -28 0
426 -427 -26 0
427 -57 -118 0
428 -110 -5 0
428 -5 -429 0
428 110 -429 0
429 -430 -5 0
429 -5 -41 0
429 430 -41 0
43 -41 -52 0
43 -44 -41 0
43 44 -52 0
430 -122 -431 0
431 -432 -310 0
432 -433 -308 0
433 -434 -306 0
434 -435 -304 0
435 -436 -302 0
436 -437 -300 0
437 -438 -298 0
438 -439 -296 0
439 -440 -294 0
44 -45 -30 0
440 -441 -292 0
441 -442 -290 0
442 -443 -288 0
443 -444 -286 0
444 -445 -284 0
445 -446 -282 0
446 -447 -280 0
447 -448 -278 0
448 -449 -276 0
449 -450 -274 0
45 -46 -28 0
450 -451 -272 0
451 -452 -270 0
452 -453 -268 0
453 -454 -266 0
454 -455 -264 0
455 -456 -262 0
456 -457 -260 0
457 -458 -258 0
458 -245 -459 0
459 -257 -7 0
459 257 7 0
46 -47 -26 0
460 -461 -465 0
460 -465 -498 0
460 461 -498 0
461 -462 -30 0
462 -463 -28 0
463 -464 -26 0
464 -65 -118 0
465 -110 -5 0
465 -5 -466 0
465 110 -466 0
466 -467 -5 0
466 -5 -41 0
466 467 -41 0
467 -468 -215 0
468 -469 -213 0
469 -470 -211 0
47 -48 -24 0
470 -471 -209 0
471 -472 -207 0
472 -473 -205 0
473 -474 -203 0
474 -475 -201 0
475 -476 -199 0
476 -477 -197 0
477 -478 -195 0
478 -479 -193 0
479 -480 -191 0
48 -49 -22 0
480 -481 -189 0
481 -482 -187 0
482 -483 -185 0
483 -484 -183 0
484 -485 -181 0
485 -486 -179 0
486 -487 -177 0
487 -488 -175 0
488 -489 -173 0
489 -490 -171 0
49 -50 -20 0
490 -491 -169 0
491 -492 -167 0
492 -493 -165 0
493 -494 -163 0
494 -495 -161 0
495 -496 -159 0
496 -497 -157 0
497 -350 -390 0
498 -499 -503 0
498 -503 -536 0
498 499 -536 0
499 -500 -30 0
5 -6 -7 0
5 6 7 0
50 -16 -51 0
500 -501 -28 0
501 -502 -26 0
502 -74 -118 0
503 -110 -5 0
503 -5 -504 0
503 110 -504 0
504 -5 -41 0
504 -505 -5 0
504 505 -41 0
505 -506 -215 0
506 -507 -213 0
507 -508 -211 0
508 -509 -209 0
509 -510 -207 0
51 -19 -7 0
51 19 7 0
510 -511 -205 0
511 -512 -203 0
512 -513 -201 0
513 -514 -199 0
514 -515 -197 0
515 -516 -195 0
516 -517 -193 0
517 -518 -191 0
518 -519 -189 0
519 -520 -187 0
52 -41 -60 0
52 -53 -41 0
52 53 -60 0
520 -521 -185 0
521 -522 -183 0
522 -523 -181 0
523 -524 -179 0
524 -525 -177 0
525 -526 -175 0
526 -527 -173 0
527 -528 -171 0
528 -529 -169 0
529 -530 -167 0
53 -54 -30 0
530 -531 -165 0
531 -532 -163 0
532 -533 -161 0
533 -534 -159 0
534 -389 -535 0
535 -158 -7 0
535 158 7 0
536 -537 -541 0
536 -541 -573 0
536 537 -573 0
537 -538 -30 0
538 -539 -28 0
539 -540 -26 0
54 -55 -28 0
540 -87 -118 0
541 -110 -5 0
541 -5 -542 0
541 110 -542 0
542 -5 -41 0
542 -543 -5 0
542 543 -41 0
543 -544 -215 0
544 -545 -213 0
545 -546 -211 0
546 -547 -209 0
547 -548 -207 0
548 -549 -205 0
549 -550 -203 0
55 -56 -26 0
550 -551 -201 0
551 -552 -199 0
552 -553 -197 0
553 -554 -195 0
554 -555 -193 0
555 -556 -191 0
556 -557 -189 0
557 -558 -187 0
558 -559 -185 0
559 -560 -183 0
56 -57 -24 0
560 -561 -181 0
561 -562 -179 0
562 -563 -177 0
563 -564 -175 0
564 -565 -173 0
565 -566 -171 0
566 -567 -169 0
567 -568 -167 0
568 -569 -165 0
569 -570 -163 0
57 -58 -22 0
570 -571 -161 0
571 -151 -572 0
572 -160 -7 0
572 160 7 0
573 -574 -578 0
573 -578 -580 0
573 574 -580 0
574 -575 -30 0
575 -576 -28 0
576 -577 -26 0
577 -94 -118 0
578 -110 -5 0
578 -5 -579 0
578 110 -579 0
579 -122 -5 0
579 -5 -41 0
579 122 -41 0
58 -59 -20 0
580 -581 -585 0
580 -585 -616 0
580 581 -616 0
581 -582 -30 0
582 -583 -28 0
583 -584 -26 0
584 -101 -118 0
585 -110 -5 0
585 -5 -586 0
585 110 -586 0
586 -5 -41 0
586 -587 -5 0
586 587 -41 0
587 -588 -215 0
588 -589 -213 0
589 -590 -211 0
59 -40 -51 0
590 -591 -209 0
591 -592 -207 0
592 -593 -205 0
593 -594 -203 0
594 -595 -201 0
595 -596 -199 0
596 -597 -197 0
597 -598 -195 0
598 -599 -193 0
599 -600 -191 0
60 -61 -68 0
60 -68 -69 0
60 61 -69 0
600 -601 -189 0
601 -602 -187 0
602 -603 -185 0
603 -604 -183 0
604 -605 -181 0
605 -606 -179 0
606 -607 -177 0
607 -608 -175 0
608 -609 -173 0
609 -610 -171 0
61 -62 -30 0
610 -611 -169 0
611 -612 -167 0
612 -613 -165 0
613 -614 -163 0
614 -615 -161 0
615 -348 -572 0
616 -578 -621 0
616 -617 -578 0
616 617 -621 0
617 -618 -30 0
618 -619 -28 0
619 -620 -26 0
62 -63 -28 0
620 -108 -118 0
621 -578 -626 0
621 -622 -578 0
621 622 -626 0
622 -623 -30 0
623 -624 -28 0
624 -12 -625 0
625 -27 -7 0
625 27 7 0
626 -578 -630 0
626 -627 -578 0
626 627 -630 0
627 -628 -30 0
628 -629 -28 0
629 -36 -625 0
63 -64 -26 0
630 -578 -634 0
630 -631 -578 0
630 631 -634 0
631 -632 -30 0
632 -633 -28 0
633 -47 -625 0
634 -578 -638 0
634 -635 -578 0
634 635 -638 0
635 -636 -30 0
636 -637 -28 0
637 -56 -625 0
638 -578 -642 0
638 -639 -578 0
638 639 -642 0
639 -640 -30 0
64 -65 -24 0
640 -641 -28 0
641 -64 -625 0
642 -578 -5 0
642 -643 -578 0
642 643 -5 0
643 -644 -30 0
644 -645 -28 0
645 -73 -625 0
65 -66 -22 0
66 -15 -67 0
67 -21 -7 0
67 21 7 0
68 -6 -4 0
68 6 4 0
69 -70 -76 0
69 -76 -82 0
69 70 -82 0
7 0
70 -71 -30 0
71 -72 -28 0
72 -73 -26 0
73 -74 -24 0
74 -75 -22 0
75 -39 -67 0
76 -5 -41 0
76 -77 -5 0
76 77 -41 0
77 -78 -80 0
78 -79 -7 0
78 79 7 0
8 -5 -32 0
8 -9 -5 0
8 9 -32 0
80 -81 -7 0
80 81 7 0
82 -41 -89 0
82 -83 -41 0
82 83 -89 0
83 -84 -30 0
84 -85 -28 0
85 -86 -26 0
86 -87 -24 0
87 -88 -22 0
88 -50 -67 0
89 -41 -96 0
89 -90 -41 0
89 90 -96 0
9 -10 -30 0
90 -91 -30 0
91 -92 -28 0
92 -93 -26 0
93 -94 -24 0
94 -95 -22 0
95 -59 -67 0
96 -68 -103 0
96 -97 -68 0
96 97 -103 0
97 -98 -30 0
98 -99 -28 0
99 -100 -26 0
